76
125
100	3
99	6
98	3
97	3
96	8
95	8
94	5
93	4
92	7
91	7
90	3
89	8
88	6
87	4
86	4
85	6
84	9
83	1
82	7
81	5
80	8
79	6
78	4
77	4
76	7
75	3
74	3
73	10
72	6
71	3
70	3
69	6
68	4
67	4
66	4
65	3
64	5
63	5
62	6
61	6
60	6
59	9
58	3
57	3
56	10
55	2
54	6
53	6
52	8
51	3
50	1
49	5
48	6
47	3
46	6
45	6
44	3
43	6
42	3
41	2
40	6
39	3
38	9
37	3
36	4
35	5
34	6
33	12
32	10
31	6
30	11
29	3
28	2
27	4
26	8
25	4
